152
105
4368	3193	1	0	1	1	1	1	0	0	1	1	1	1	1	1	0	1	0	0	1	1	1	0	1	0	0	0	1	1	0	1	0	0	1	1	1	1	1	1	1	1	1	0	1	1	0	1	0	0	1	0	1	0	1	0	0	1	0	0	0	0	0	1	1	1	1	1	1	1	0	0	0	0	0	1	1	1	1	0	1	1	0	1	1	1	1	0	0	0	0	0	1	1	0	0	1	0	1	0	1	0	0	0	1	0	0	
4359	3203	1	0	1	1	1	1	0	0	1	1	1	1	0	1	0	1	0	0	1	1	1	0	1	0	0	0	1	1	0	1	0	0	1	1	1	1	1	1	1	1	1	0	1	1	0	1	0	0	1	0	1	1	1	0	0	0	0	0	0	0	0	1	1	1	1	1	1	1	0	0	0	0	0	1	1	1	1	0	1	1	0	1	1	1	1	0	0	0	0	0	1	1	0	0	1	0	1	0	1	0	1	1	1	0	0	
4358	3277	1	0	1	1	1	1	0	0	1	1	1	1	1	1	0	1	0	0	1	1	1	0	1	0	0	0	1	1	0	1	0	0	1	1	1	0	1	1	1	1	1	0	1	1	0	1	0	0	1	0	1	0	1	0	0	1	0	0	0	0	0	1	1	1	1	1	1	1	0	0	0	0	0	1	1	1	1	0	1	1	0	1	1	1	1	0	0	0	0	0	1	1	0	0	1	0	1	0	1	0	1	1	0	1	0	
4357	3282	1	0	1	1	1	1	0	0	1	1	1	1	1	1	0	1	0	0	1	1	1	0	1	0	0	0	1	1	0	1	0	0	1	1	1	1	1	1	1	1	1	0	1	1	0	1	0	0	1	0	1	0	1	0	1	1	0	0	0	0	0	1	1	1	1	1	1	1	0	0	0	0	0	1	1	1	1	0	1	1	0	1	1	1	1	0	0	0	0	0	1	1	0	0	1	0	1	0	1	0	0	0	0	1	0	
4354	3302	1	0	1	1	1	1	0	0	1	1	1	1	0	1	0	1	0	0	1	1	1	0	1	0	0	0	1	1	0	1	0	0	1	1	1	1	0	1	1	1	1	0	1	1	0	1	0	0	1	0	1	0	1	0	0	1	0	0	0	0	0	1	1	1	1	1	1	1	0	0	0	0	0	1	1	1	1	0	1	1	0	1	1	1	1	0	0	0	0	0	1	1	0	0	1	0	1	0	1	0	1	1	1	1	0	
4352	3321	1	0	1	1	1	1	0	0	1	1	1	1	1	1	0	1	0	0	1	1	1	0	1	0	0	0	1	1	0	1	0	0	1	1	1	1	0	1	1	1	1	0	1	1	0	1	0	0	1	0	1	0	1	0	0	1	0	0	0	0	0	1	1	1	1	1	1	1	0	0	0	0	0	1	1	1	1	0	1	1	0	1	1	1	1	0	0	0	0	0	1	1	0	0	1	0	1	0	1	0	1	1	0	1	0	
4344	3325	1	0	1	1	1	1	0	1	1	1	1	1	0	1	0	1	0	0	1	1	1	0	1	0	0	0	1	1	0	1	0	0	1	1	1	1	0	0	1	1	1	0	1	1	0	1	0	0	1	0	1	0	1	0	0	1	0	0	0	0	0	1	1	1	1	1	1	1	0	0	0	0	0	1	1	1	1	0	1	1	0	1	1	1	1	0	0	0	0	0	1	1	0	0	1	0	1	0	1	0	1	1	1	1	0	
4341	3362	1	0	1	1	1	1	0	0	1	1	0	1	1	1	0	1	0	0	1	1	1	0	1	0	0	0	1	1	0	1	0	0	1	1	1	1	0	1	1	1	1	0	1	1	0	1	0	0	1	0	1	0	1	1	0	1	0	0	0	0	0	1	1	1	1	1	1	1	0	0	0	0	0	1	1	1	1	0	1	1	0	1	1	1	1	1	0	0	0	0	1	1	0	0	1	0	1	0	1	0	1	0	1	0	0	
4338	3364	1	0	1	1	1	1	0	0	1	1	1	1	1	1	0	1	0	0	1	1	1	0	1	0	0	0	1	1	0	1	0	0	1	1	1	1	1	0	1	1	1	0	1	1	0	1	0	0	1	0	1	0	1	1	1	0	0	0	0	0	0	1	1	1	1	1	1	1	0	0	0	0	0	1	1	1	1	0	1	1	1	1	1	1	1	0	0	0	0	0	1	1	0	0	1	0	1	0	1	0	1	0	0	0	0	
4337	3374	1	0	1	1	1	1	0	0	1	1	1	1	1	1	0	1	0	0	1	1	1	0	1	0	0	0	1	1	0	1	0	0	1	1	1	1	0	1	1	1	1	0	1	1	0	1	0	0	1	0	1	1	1	0	1	1	0	0	0	0	0	1	1	1	1	1	1	1	0	0	0	0	0	1	1	1	1	0	1	1	0	1	1	1	1	0	0	1	0	0	1	1	0	0	1	0	1	0	1	0	1	0	0	0	0	
4336	3390	1	0	1	1	1	1	0	0	1	1	1	1	1	1	0	1	0	0	1	1	1	0	1	0	0	0	1	1	0	1	0	0	1	1	1	1	0	1	1	1	1	0	1	1	0	1	0	0	1	0	1	0	1	0	1	1	0	0	0	0	0	1	1	1	1	1	1	1	0	0	0	0	0	1	1	1	1	0	1	0	0	1	1	1	1	0	0	0	0	0	1	1	0	0	1	0	1	0	1	1	1	0	1	1	0	
4331	3397	1	0	1	1	1	1	0	0	1	1	1	1	0	1	0	1	0	0	1	1	1	0	1	0	0	0	1	1	0	1	0	0	1	1	1	1	0	1	1	1	1	0	1	1	0	1	0	0	1	0	1	0	1	0	1	1	0	0	0	0	0	1	1	1	1	1	1	1	0	0	0	0	0	1	1	1	1	0	1	1	0	1	1	1	1	0	0	0	0	0	1	1	1	0	1	0	1	0	1	0	1	0	1	1	0	
4330	3422	1	0	1	1	1	1	0	0	1	1	1	1	1	1	0	1	0	0	1	1	1	0	1	0	0	0	1	1	0	1	0	0	1	1	1	1	0	1	1	1	1	0	1	1	0	1	0	0	1	0	1	0	1	0	1	1	0	0	0	0	0	1	1	1	1	1	1	1	0	0	0	0	0	1	1	1	1	0	1	1	0	1	1	1	1	0	0	1	0	0	1	1	0	0	1	0	1	0	1	0	1	0	0	1	0	
4327	3426	1	0	1	1	1	1	0	1	1	1	1	1	0	1	0	1	0	0	1	1	1	0	1	0	0	0	1	1	0	1	0	0	1	1	1	1	0	1	1	1	1	0	1	1	0	1	0	0	1	0	1	0	1	0	1	1	0	0	0	0	0	1	1	1	1	1	1	1	0	0	0	0	0	1	1	1	1	0	1	1	0	1	1	1	1	1	0	0	0	0	1	1	0	0	1	0	1	0	1	0	1	0	0	1	0	
4326	3434	1	0	1	1	1	1	0	0	1	1	1	1	1	1	0	1	0	0	1	1	1	0	1	0	0	0	1	1	0	1	0	0	1	1	1	1	0	0	1	1	1	1	1	1	0	1	0	0	1	0	1	0	1	1	0	1	0	0	0	0	0	1	1	1	1	1	1	1	0	0	0	0	0	1	1	1	1	0	1	1	0	1	1	1	1	0	0	0	0	0	1	1	0	0	1	0	1	0	1	0	1	0	0	1	0	
4323	3467	1	0	1	1	1	1	0	0	1	1	1	1	1	1	0	1	0	0	1	1	1	0	1	0	0	0	1	1	0	1	0	0	1	1	1	1	0	1	1	1	1	1	1	1	0	1	0	0	1	0	1	0	1	0	0	1	0	0	0	0	0	1	1	1	1	1	1	1	0	0	0	0	0	1	1	1	1	0	1	1	0	1	1	1	1	0	0	1	0	0	1	1	0	0	1	0	1	0	1	0	1	0	0	1	0	
4320	3487	1	0	1	1	1	1	0	0	1	1	1	1	0	1	0	1	0	0	1	1	1	0	1	0	0	0	1	1	0	1	0	0	1	1	1	1	0	1	1	1	1	0	1	1	0	1	0	0	1	0	1	0	1	1	0	1	0	0	0	0	0	1	1	1	1	1	1	1	0	0	0	0	0	1	1	1	1	0	1	1	0	1	1	1	1	0	0	1	0	0	1	1	0	0	1	0	1	0	1	1	1	0	0	1	0	
4311	3497	1	0	1	1	1	1	0	0	1	1	1	1	0	1	0	1	0	0	1	1	1	0	1	0	0	0	1	1	0	1	0	0	1	1	1	1	0	1	1	1	1	0	1	1	0	1	0	0	1	0	1	0	1	1	0	1	0	0	0	0	0	1	1	1	1	1	1	1	0	0	0	0	0	1	1	1	1	0	1	1	1	1	1	1	1	0	0	1	0	0	1	1	0	0	1	0	1	0	1	0	1	0	0	1	0	
4308	3499	1	0	1	1	1	1	0	1	1	1	1	1	1	1	0	1	0	0	1	1	1	0	1	0	0	0	1	1	0	1	0	0	1	1	1	1	0	0	1	1	1	0	1	1	0	1	0	0	1	0	1	0	1	0	0	1	0	0	0	0	0	1	1	1	1	1	1	1	0	0	0	0	0	1	1	1	1	0	1	1	1	1	1	1	1	0	0	1	0	0	1	1	0	0	1	0	1	0	1	1	1	0	0	0	0	
4306	3502	1	0	1	1	1	1	0	0	1	1	1	1	1	1	0	1	0	0	1	1	1	0	1	0	0	0	1	1	0	1	0	0	1	1	1	1	0	0	1	1	1	1	1	1	0	1	0	0	1	0	1	0	1	1	1	1	0	0	0	0	0	1	1	1	1	1	1	1	0	0	0	0	0	1	1	1	1	0	1	1	0	0	1	1	1	1	0	0	0	0	1	1	0	0	1	0	1	0	1	0	1	0	0	1	0	
4303	3507	1	0	1	1	1	1	0	0	1	1	1	1	0	1	0	1	0	0	1	1	1	0	1	0	0	0	1	1	0	1	0	0	1	1	1	1	1	0	1	1	1	1	1	1	0	1	0	0	1	0	1	0	1	1	0	0	0	0	0	0	0	1	1	1	1	1	1	1	0	0	0	0	0	1	1	1	1	0	1	1	1	1	1	1	1	0	0	0	0	0	1	1	0	0	1	0	1	0	1	1	1	0	0	1	0	
4302	3517	1	0	1	1	1	1	0	0	1	1	1	1	1	1	0	1	0	0	1	1	1	0	1	0	0	0	1	1	0	1	0	0	1	1	1	1	0	1	1	1	1	0	1	1	0	1	0	0	1	0	1	0	1	0	1	1	0	0	0	0	0	1	1	1	1	1	1	1	0	0	0	0	0	1	1	1	1	0	1	1	1	0	1	1	1	1	0	0	0	0	1	1	0	0	1	0	1	0	1	1	1	0	0	1	0	
4301	3520	1	0	1	1	1	1	0	0	1	1	0	1	1	1	0	1	0	0	1	1	1	0	1	0	0	0	1	1	0	1	0	0	1	1	1	1	0	1	1	1	1	1	1	1	0	1	0	0	1	0	1	0	1	0	0	0	0	0	0	0	0	1	1	1	1	1	1	1	0	0	0	0	0	1	1	1	1	0	1	1	0	1	1	1	1	1	0	1	0	0	1	1	0	0	1	0	1	0	1	1	1	1	0	1	0	
4298	3535	1	0	1	1	1	1	0	1	1	1	0	1	1	1	0	1	0	0	1	1	1	0	1	0	0	0	1	1	0	1	0	0	1	1	1	1	0	1	1	1	1	0	1	1	0	1	0	0	1	0	1	0	1	0	0	1	0	0	0	0	0	1	1	1	1	1	1	1	0	0	0	0	0	1	1	1	1	0	1	1	0	1	1	1	1	1	0	1	0	0	1	1	0	0	1	0	1	0	1	1	1	0	0	1	0	
4294	3548	1	0	1	1	1	1	0	1	1	1	1	1	1	1	0	1	0	0	1	1	1	0	1	0	0	0	1	1	0	1	0	0	1	1	1	1	0	1	1	1	1	0	1	1	0	1	0	0	1	0	1	0	1	0	0	1	0	0	0	0	0	1	1	1	1	1	1	1	0	0	0	0	0	1	1	1	1	0	1	0	1	1	1	1	1	1	0	1	0	0	1	1	0	0	1	0	1	0	1	0	1	0	0	1	0	
4293	3558	1	0	1	1	1	1	0	0	1	1	1	1	1	1	0	1	0	0	1	1	1	0	1	0	0	0	1	1	0	1	0	0	1	1	1	1	0	0	1	1	1	1	1	1	0	1	0	0	1	0	1	0	1	0	1	0	0	0	0	0	0	1	1	1	1	1	1	1	0	0	0	0	0	1	1	1	1	0	1	1	1	1	1	1	1	0	0	1	0	0	1	1	0	0	1	0	1	0	1	1	1	0	0	1	0	
4290	3563	1	0	1	1	1	1	0	1	1	1	1	1	0	1	0	1	0	0	1	1	1	0	1	0	0	0	1	1	0	1	0	0	1	1	1	1	1	0	1	1	1	1	1	1	0	1	0	0	1	0	1	0	1	0	0	0	0	0	0	0	0	1	1	1	1	1	1	1	0	0	0	0	0	1	1	1	1	0	1	1	1	1	1	1	1	0	0	1	0	0	1	1	0	0	1	0	1	0	1	1	1	0	0	1	0	
4285	3573	1	0	1	1	1	1	0	0	1	1	0	1	0	1	0	1	0	0	1	1	1	0	1	0	0	0	1	1	0	1	0	0	1	1	1	1	0	1	1	1	1	0	1	1	0	1	0	0	1	0	1	0	1	1	1	1	0	0	0	0	0	1	1	1	1	1	1	1	0	0	0	0	0	1	1	1	1	0	1	1	0	1	1	1	1	0	0	1	0	0	1	1	1	0	1	0	1	0	1	1	1	0	0	1	0	
4283	3593	1	0	1	1	1	1	0	1	1	1	1	1	0	1	0	1	0	0	1	1	1	0	1	0	0	0	1	1	0	1	0	0	1	1	1	1	0	1	1	1	1	1	1	1	0	1	0	0	1	0	1	0	1	0	0	1	0	0	0	0	0	1	1	1	1	1	1	1	0	0	0	0	0	1	1	1	1	0	1	0	1	1	1	1	1	1	0	0	0	0	1	1	0	0	1	0	1	0	1	1	1	0	0	1	0	
4281	3596	1	0	1	1	1	1	0	0	1	1	1	1	0	1	0	1	0	0	1	1	1	0	1	0	0	0	1	1	0	1	0	0	1	1	1	1	0	1	1	1	1	1	1	1	0	1	0	0	1	0	1	0	1	0	0	1	0	0	0	0	0	1	1	1	1	1	1	1	0	0	0	0	0	1	1	1	1	0	1	1	1	1	1	1	1	0	0	1	0	0	1	1	1	0	1	0	1	0	1	0	1	0	0	1	0	
4277	3598	1	0	1	1	1	1	0	0	1	1	1	1	1	1	0	1	0	0	1	1	1	0	1	0	0	0	1	1	0	1	0	0	1	1	1	1	0	1	1	1	1	1	1	1	0	1	0	0	1	0	1	0	1	1	0	1	0	0	0	0	0	1	1	1	1	1	1	1	0	0	0	0	0	1	1	1	1	0	1	0	0	0	1	1	1	1	0	1	0	0	1	1	0	0	1	0	1	0	1	1	1	0	0	1	0	
4276	3612	1	0	1	1	1	1	0	1	1	1	1	1	1	1	0	1	0	0	1	1	1	0	1	0	0	0	1	1	0	1	0	0	1	1	1	1	0	0	1	1	1	1	1	1	0	1	0	0	1	0	1	0	1	0	0	1	0	0	0	0	0	1	1	1	1	1	1	1	0	0	0	0	0	1	1	1	1	0	1	0	1	1	1	1	1	0	0	1	0	0	1	1	0	0	1	0	1	0	1	1	1	0	0	1	0	
4274	3625	1	0	1	1	1	1	0	0	1	1	1	1	0	1	0	1	0	0	1	1	1	0	1	0	0	0	1	1	0	1	0	0	1	1	1	1	0	0	1	1	1	1	1	1	0	1	0	0	1	0	1	0	1	1	0	0	0	0	0	0	0	1	1	1	1	1	1	1	0	0	0	0	0	1	1	1	1	0	1	1	1	1	1	1	1	1	0	0	0	0	1	1	1	0	1	0	1	0	1	1	1	0	0	1	0	
4266	3629	1	0	1	1	1	1	0	0	1	1	0	1	1	1	0	1	0	0	1	1	1	0	1	0	0	0	1	1	0	1	0	0	1	1	1	1	0	1	1	1	1	1	1	1	0	1	0	0	1	0	1	0	1	0	0	1	0	0	0	0	0	1	1	1	1	1	1	1	0	0	0	0	0	1	1	1	1	0	1	1	1	0	1	1	1	1	0	1	0	0	1	1	1	0	1	0	1	0	1	0	1	0	1	1	0	
4264	3639	1	0	1	1	1	1	0	0	1	1	1	0	1	1	0	1	0	0	1	1	1	0	1	0	0	0	1	1	0	1	0	0	1	1	1	1	0	0	1	1	1	1	1	1	0	1	0	0	1	0	1	0	1	0	1	1	0	0	0	0	0	1	1	1	1	1	1	1	0	0	0	0	0	1	1	1	1	0	1	1	1	1	1	1	1	0	0	1	0	0	1	1	0	0	1	0	1	0	1	1	1	0	0	1	0	
4261	3654	1	0	1	1	1	1	0	0	1	1	0	1	1	1	0	1	0	0	1	1	1	0	1	0	0	0	1	1	0	1	0	0	1	1	1	1	0	1	1	1	1	1	1	1	0	1	0	0	1	0	1	0	1	0	1	1	0	0	0	0	0	1	1	1	1	1	1	1	0	0	0	0	0	1	1	1	1	0	1	1	1	0	1	1	1	1	0	1	0	0	1	1	0	0	1	0	1	0	1	1	1	0	0	1	0	
4258	3660	1	0	1	1	1	1	0	0	1	1	0	1	1	1	0	1	0	0	1	1	1	0	1	0	0	0	1	1	0	1	0	0	1	1	1	0	0	1	1	1	1	1	1	1	0	1	0	0	1	0	1	0	1	0	0	1	0	0	0	0	0	1	1	1	1	1	1	1	0	0	0	0	0	1	1	1	1	0	1	1	1	1	1	1	1	1	0	1	0	0	1	1	1	0	1	0	1	0	1	1	1	0	0	1	0	
4256	3664	1	0	1	1	1	1	0	1	1	1	0	1	0	1	0	1	0	0	1	1	1	0	1	0	0	0	1	1	0	1	0	0	1	1	1	1	0	1	1	1	1	0	1	1	0	1	0	0	1	0	1	0	1	0	0	1	0	0	0	0	0	1	1	1	1	1	1	1	0	0	0	0	0	1	1	1	1	0	1	1	1	1	1	1	1	1	0	1	0	0	1	1	1	0	1	0	1	0	1	1	1	0	0	1	0	
4253	3672	1	0	1	1	1	1	0	0	1	1	1	1	1	1	0	1	0	0	1	1	1	0	1	0	0	0	1	1	0	1	0	0	1	1	1	1	0	0	1	1	1	0	1	1	0	1	0	0	1	0	1	0	1	0	0	1	0	0	0	0	0	1	1	1	1	1	1	1	0	0	0	0	1	1	1	1	1	0	1	1	1	0	1	1	1	1	0	1	0	0	1	1	1	0	1	0	1	0	1	1	1	0	0	1	0	
4252	3679	1	0	1	1	1	1	0	1	1	1	0	1	1	1	0	1	0	0	1	1	1	0	1	0	0	0	1	1	0	1	0	0	1	1	1	1	0	1	1	1	1	1	1	1	0	1	0	0	1	0	1	0	1	0	0	1	0	0	0	0	0	1	1	1	1	1	1	1	0	0	0	0	0	1	1	1	1	0	1	0	1	1	1	1	1	1	0	1	0	0	1	1	1	0	1	0	1	0	1	0	1	0	0	1	0	
4249	3696	1	0	1	1	1	1	0	0	1	1	0	1	0	1	0	1	0	0	1	1	1	0	1	0	0	0	1	1	0	1	0	0	1	1	1	1	0	1	1	1	1	1	1	1	0	1	0	0	1	0	1	0	1	1	1	1	0	0	0	0	0	1	1	1	1	1	1	1	0	0	0	0	0	1	1	1	1	0	1	1	1	0	1	1	1	1	0	1	0	0	1	1	1	0	1	0	1	0	1	0	1	0	0	1	0	
4241	3698	1	0	1	1	1	1	0	1	1	1	0	1	1	1	0	1	0	0	1	1	1	0	1	0	0	0	1	1	0	1	0	0	1	1	1	1	0	0	1	1	1	1	1	1	0	1	0	0	1	0	1	0	1	0	1	1	0	0	0	0	0	1	1	1	1	1	1	1	0	0	0	0	0	1	1	1	1	0	1	0	1	1	1	1	1	0	0	1	0	0	1	1	1	0	1	0	1	0	1	1	1	0	0	1	0	
4236	3700	1	0	1	1	1	1	0	1	1	1	0	1	0	1	0	1	0	0	1	1	1	0	1	0	0	0	1	1	0	1	0	0	1	1	1	1	0	0	1	1	1	0	1	1	0	1	0	0	1	0	1	0	1	0	0	1	0	0	0	0	0	1	1	1	1	1	1	1	0	0	0	0	1	1	1	1	1	0	1	1	1	1	1	1	1	1	0	1	0	0	1	1	1	0	1	0	1	0	1	1	1	0	0	1	0	
4233	3709	1	0	1	1	1	1	0	0	1	1	1	0	0	1	0	1	0	0	1	1	1	0	1	0	0	0	1	1	0	1	0	0	1	1	1	1	0	0	1	1	1	1	1	1	0	1	0	0	1	0	1	0	1	1	0	1	0	0	0	0	0	1	1	1	1	1	1	1	0	0	0	0	0	1	1	1	1	0	1	1	1	1	1	1	1	0	0	1	0	0	1	1	1	0	1	0	1	0	1	1	1	0	0	1	0	
4232	3715	1	0	1	1	1	1	0	1	1	1	1	1	0	1	0	1	0	0	1	1	1	0	1	0	0	0	1	1	0	1	0	0	1	1	1	1	0	0	1	1	1	1	1	1	0	1	0	0	1	0	1	0	1	0	0	1	0	0	0	0	0	1	1	1	1	1	1	1	0	0	0	0	0	1	1	1	1	0	1	1	1	0	1	1	1	1	0	1	0	0	1	1	1	0	1	0	1	0	1	1	1	0	0	1	0	
4231	3728	1	0	1	1	1	1	0	1	1	1	0	1	0	1	0	1	0	0	1	1	1	0	1	0	0	0	0	1	0	1	0	0	1	1	1	1	0	1	1	1	1	1	1	1	0	1	0	0	1	0	1	0	1	0	0	1	0	0	0	0	0	1	1	1	1	1	1	1	0	0	0	0	0	1	1	1	1	0	1	1	1	1	1	1	1	1	0	1	0	0	1	1	1	0	1	0	1	0	1	1	1	0	0	1	0	
4227	3749	1	0	1	1	1	1	0	0	1	1	0	1	1	1	0	1	0	0	1	1	1	0	1	0	0	0	1	1	0	1	0	0	1	1	1	1	0	0	1	1	1	1	1	1	0	1	0	0	1	0	1	0	1	0	1	1	0	0	0	0	0	1	1	1	1	1	1	1	0	0	0	0	0	1	1	0	1	0	1	1	1	1	1	1	1	1	0	1	0	0	1	1	1	0	1	0	1	0	1	1	1	0	0	1	0	
4216	3760	1	0	1	1	1	1	0	1	1	1	1	0	1	1	0	1	0	0	1	1	1	0	1	0	0	0	1	1	0	1	0	0	1	1	1	1	0	0	1	1	1	1	1	1	0	1	0	0	1	0	1	0	1	0	0	1	0	0	0	0	0	1	1	1	1	1	1	1	0	0	0	0	0	1	1	1	1	0	1	0	1	1	1	1	1	1	0	1	0	0	1	1	1	0	1	0	1	0	1	1	1	0	0	1	0	
4215	3763	1	0	1	1	1	1	0	0	1	1	1	1	0	1	0	1	0	0	1	1	1	0	1	0	0	0	1	1	0	1	0	0	1	1	1	1	0	0	1	1	1	1	1	1	0	1	0	0	1	0	1	0	1	1	0	1	0	0	0	0	0	1	1	1	1	1	1	1	0	0	0	0	1	1	1	1	1	0	1	0	1	0	1	1	1	1	0	1	0	0	1	1	1	0	1	0	1	0	1	1	1	0	0	1	0	
4208	3781	1	0	1	1	1	1	0	0	1	1	1	1	0	1	0	1	0	0	1	1	1	0	1	0	0	0	1	1	0	1	0	0	1	1	1	1	0	0	1	1	1	1	1	1	0	1	0	0	1	0	1	0	1	1	0	1	0	1	0	0	0	1	1	1	1	1	1	1	0	0	0	0	0	1	1	1	1	0	1	0	1	0	1	1	1	1	0	1	0	0	1	1	1	0	1	0	1	0	1	1	1	0	0	1	0	
4199	3792	1	0	1	1	1	1	0	0	1	1	1	1	0	1	0	1	0	0	1	1	1	0	1	0	0	0	1	1	0	1	0	0	1	1	1	1	0	0	1	1	1	1	1	1	0	1	0	0	1	1	1	0	1	1	0	1	0	0	0	0	0	1	1	1	1	1	1	1	0	0	0	0	0	1	1	1	1	0	1	0	1	0	1	1	1	1	0	1	0	0	1	1	1	0	1	0	1	0	1	1	1	0	0	1	0	
4191	3793	1	0	1	1	1	1	0	1	1	1	0	1	0	1	0	1	0	0	1	1	1	0	1	0	0	0	1	1	0	1	0	0	1	1	1	1	0	0	1	1	1	1	1	1	0	1	1	0	1	0	1	0	1	0	1	1	0	0	0	0	0	1	1	1	1	1	1	1	0	0	0	0	1	1	1	1	1	0	1	0	1	0	1	1	1	1	0	1	0	0	1	1	1	0	1	0	1	0	1	1	1	0	0	1	0	
4190	3802	1	0	1	1	1	1	0	0	1	1	1	0	1	1	0	1	0	0	1	1	1	0	1	0	0	0	1	1	0	1	0	0	1	1	1	1	0	0	1	1	1	1	1	1	0	1	0	0	1	1	1	0	1	0	0	1	0	0	0	0	0	1	1	1	1	1	1	1	0	0	0	0	0	1	1	1	1	0	1	0	1	1	1	1	1	1	0	1	0	0	1	1	1	0	1	0	1	0	1	1	1	0	0	1	0	
4185	3808	1	0	1	1	1	1	0	1	1	1	0	0	1	1	0	1	0	0	1	1	1	0	1	0	0	0	1	1	0	1	0	0	1	1	1	1	0	1	1	1	1	1	1	1	0	1	0	0	1	0	1	0	1	0	1	1	0	0	0	0	0	1	1	1	1	1	1	1	1	0	0	0	0	1	1	1	1	0	1	0	1	0	1	1	1	1	0	1	0	0	1	1	1	0	1	0	1	0	1	1	1	0	0	1	0	
4179	3814	1	0	1	1	1	1	0	0	1	1	0	1	1	1	0	1	0	0	1	1	1	0	1	0	0	0	1	1	0	1	0	0	1	1	1	1	0	0	1	1	1	1	1	1	0	1	0	0	1	0	1	0	1	1	1	1	0	0	0	0	0	1	1	0	1	1	1	1	0	0	0	0	1	1	1	0	1	0	1	0	1	1	1	1	1	1	0	1	0	0	1	1	1	0	1	0	1	0	1	1	1	0	0	1	0	
4175	3822	1	0	1	1	1	1	0	1	1	1	0	1	0	1	0	1	0	0	1	1	1	0	1	0	0	0	1	1	0	1	0	0	1	1	1	1	0	0	1	1	1	1	1	1	0	1	1	0	1	1	1	0	1	0	1	1	0	0	0	0	0	1	1	1	1	1	1	1	0	0	0	0	0	1	1	1	1	0	1	0	1	0	1	1	1	1	0	1	0	0	1	1	1	0	1	0	1	0	1	1	1	0	0	1	0	
4174	3824	1	0	1	1	1	1	0	0	1	1	0	1	0	1	0	1	0	0	1	1	1	0	1	0	0	0	1	1	0	1	0	0	1	1	1	1	0	0	1	1	1	1	1	1	0	1	1	0	1	0	1	0	1	0	1	1	0	1	0	0	0	1	1	1	1	1	1	1	0	0	0	0	1	1	1	1	1	0	1	0	1	0	1	1	1	1	0	1	0	0	1	1	1	0	1	0	1	0	1	1	1	0	0	1	0	
4171	3825	1	0	1	1	1	1	0	1	1	1	0	0	1	1	0	1	0	0	1	1	1	0	1	0	0	0	1	1	0	1	0	0	1	1	1	1	0	0	1	1	1	1	1	1	0	1	0	0	1	0	1	1	1	1	0	1	0	0	0	0	0	1	1	1	1	1	1	1	1	0	0	0	0	1	1	1	1	0	1	0	1	0	1	1	1	1	0	1	0	0	1	1	1	0	1	0	1	0	1	1	1	0	0	1	0	
4168	3839	1	0	1	1	1	1	0	0	1	1	0	0	1	1	0	1	0	0	1	1	1	0	1	0	0	0	1	1	0	1	0	0	1	1	1	1	0	1	1	1	1	1	1	1	0	1	0	0	1	0	1	0	1	0	1	1	0	1	0	0	0	1	1	1	1	1	1	1	1	0	0	0	0	1	1	1	1	0	1	0	1	0	1	1	1	1	0	1	0	0	1	1	1	0	1	0	1	0	1	1	1	0	0	1	0	
4165	3844	1	0	1	1	1	1	0	1	1	1	0	0	1	1	0	1	0	0	1	1	1	0	1	0	0	0	1	1	0	1	0	0	1	1	1	1	0	0	1	1	1	1	1	1	0	1	0	0	1	0	1	0	1	0	1	1	0	0	0	0	0	1	1	1	1	1	1	1	1	0	0	0	1	1	1	1	1	0	1	0	1	0	1	1	1	1	0	1	0	0	1	1	1	0	1	0	1	0	1	1	1	0	0	1	0	
4159	3850	1	0	1	1	1	1	0	0	1	1	0	0	1	1	0	1	0	0	1	1	1	0	1	0	0	0	1	1	0	1	0	0	1	1	1	1	0	1	1	1	1	1	1	1	0	1	0	0	1	1	1	0	1	0	1	1	0	0	0	0	0	1	1	1	1	1	1	1	1	0	0	0	0	1	1	1	1	0	1	0	1	0	1	1	1	1	0	1	0	0	1	1	1	0	1	0	1	0	1	1	1	0	0	1	0	
4150	3860	1	0	1	1	1	1	0	1	1	1	0	0	0	1	0	1	0	0	1	1	1	0	1	0	0	0	1	1	0	1	0	0	1	1	1	1	0	0	1	1	1	1	1	1	0	1	0	0	1	0	1	0	1	1	1	1	0	0	0	0	0	1	1	1	1	1	1	1	1	0	0	0	0	1	1	0	1	0	1	0	1	1	1	1	1	1	0	1	0	0	1	1	1	0	1	0	1	0	1	1	1	0	0	1	0	
4145	3867	1	0	1	1	1	1	0	0	1	1	0	0	1	1	0	1	0	0	1	1	1	0	1	0	0	0	1	1	0	1	0	0	1	1	1	1	0	0	1	1	1	1	1	1	0	1	0	0	1	1	1	1	1	1	0	1	0	0	0	0	0	1	1	1	1	1	1	1	1	0	0	0	0	1	1	1	1	0	1	0	1	0	1	1	1	1	0	1	0	0	1	1	1	0	1	0	1	0	1	1	1	0	0	1	0	
4140	3873	1	0	1	1	1	1	0	0	1	1	0	0	0	1	0	1	0	0	1	1	1	0	1	0	0	0	1	1	0	1	0	0	1	1	1	1	0	0	1	1	1	1	1	1	0	1	0	0	1	0	1	0	1	1	1	1	0	0	0	0	0	1	1	1	1	1	1	1	1	0	0	0	1	1	1	0	1	0	1	0	1	1	1	1	1	1	0	1	0	0	1	1	1	0	1	0	1	0	1	1	1	0	0	1	0	
4139	3886	1	0	1	1	1	1	0	0	1	1	0	0	1	1	0	1	0	0	1	1	1	0	1	0	0	0	1	1	0	1	0	0	1	1	1	1	0	0	1	1	1	1	1	1	0	1	0	0	1	1	1	0	1	0	1	1	0	0	0	0	0	1	1	1	1	1	1	1	1	0	0	0	1	1	1	1	1	0	1	0	1	0	1	1	1	1	0	1	0	0	1	1	1	0	1	0	1	0	1	1	1	0	0	1	0	
4133	3891	1	0	1	1	1	1	0	0	1	1	0	0	0	1	0	1	0	0	1	1	1	0	1	0	0	0	1	1	0	1	0	0	1	1	1	1	0	0	1	1	1	1	1	1	0	1	0	0	1	0	1	0	1	1	1	1	0	1	0	0	0	1	1	1	1	1	1	1	1	0	0	0	0	1	1	0	1	0	1	0	1	1	1	1	1	1	0	1	0	0	1	1	1	0	1	0	1	0	1	1	1	0	0	1	0	
4128	3898	1	0	1	1	1	1	0	0	1	1	0	0	0	1	0	1	0	0	1	1	1	0	1	0	0	0	1	1	0	1	0	0	1	1	1	1	0	0	1	1	1	1	1	1	0	1	1	0	1	0	1	0	1	1	0	1	0	1	0	0	0	1	1	1	1	1	1	1	1	0	0	0	0	1	1	0	1	0	1	0	1	1	1	1	1	1	0	1	0	0	1	1	1	0	1	0	1	0	1	1	1	0	0	1	0	
4124	3905	1	0	1	1	1	1	0	1	1	1	0	0	0	1	0	1	0	0	1	1	1	0	1	0	0	0	1	1	0	1	0	0	1	1	1	1	0	0	1	1	1	1	1	1	0	1	0	0	1	1	1	0	1	0	1	1	0	0	0	0	0	1	1	0	1	1	1	1	1	0	0	0	1	1	1	1	1	0	1	1	1	0	1	1	1	1	0	1	0	0	1	1	1	0	1	0	1	0	1	1	1	0	0	1	0	
4119	3909	1	0	1	1	1	1	0	0	1	1	0	0	0	1	0	1	0	0	1	1	1	0	1	0	0	0	1	1	0	1	0	0	1	1	1	1	0	0	1	1	1	1	1	1	0	1	1	0	1	1	1	0	1	1	0	1	0	0	0	0	0	1	1	1	1	1	1	1	1	0	0	0	0	1	1	0	1	0	1	0	1	1	1	1	1	1	0	1	0	0	1	1	1	0	1	0	1	0	1	1	1	0	0	1	0	
4116	3928	1	0	1	1	1	1	0	0	1	1	0	0	0	1	0	1	0	0	1	1	1	0	1	0	0	0	0	1	0	1	0	0	1	1	1	1	0	0	1	1	1	1	1	1	0	1	0	0	1	1	1	0	1	1	0	1	0	1	0	0	0	1	1	1	1	1	1	1	1	0	0	0	0	1	1	1	1	0	1	0	1	1	1	1	1	1	0	1	0	0	1	1	1	0	1	0	1	0	1	1	1	0	0	1	0	
4092	3933	1	0	1	1	1	1	0	0	1	1	1	0	0	1	0	1	0	0	1	1	1	0	1	0	0	0	1	1	0	1	0	0	1	1	1	1	0	0	1	1	0	1	1	1	0	1	0	0	1	1	1	0	1	0	1	1	0	1	0	0	0	1	1	1	1	1	1	1	1	0	0	0	0	1	1	0	1	0	1	0	1	1	1	1	1	1	0	1	0	0	1	1	1	0	1	0	1	0	1	1	1	0	0	1	0	
4091	3943	1	0	1	1	1	1	0	0	1	1	0	0	0	1	0	1	0	0	1	1	1	0	1	0	0	0	1	1	0	1	0	0	1	1	1	1	0	0	1	1	0	1	1	1	0	1	1	0	1	0	1	0	1	1	0	1	0	1	0	0	0	1	1	1	1	1	1	1	1	0	0	0	1	1	1	0	1	0	1	0	1	1	1	1	1	1	0	1	0	0	1	1	1	0	1	0	1	0	1	1	1	0	0	1	0	
4086	3947	1	0	1	1	1	1	0	0	1	1	0	0	0	1	0	1	0	0	1	1	1	0	1	0	0	0	1	1	0	1	0	0	1	1	1	1	0	0	1	1	1	1	1	1	0	1	0	0	1	1	1	1	1	1	1	1	0	0	1	0	0	1	1	1	1	1	1	1	1	0	0	0	0	1	1	0	1	0	1	0	1	0	1	1	1	1	0	1	0	0	1	1	1	0	1	0	1	0	1	1	1	0	0	1	0	
4082	3954	1	0	1	1	1	1	0	0	1	1	0	0	0	1	0	1	0	0	1	1	1	0	1	0	0	0	1	1	0	1	0	0	1	1	1	1	0	0	1	1	0	1	1	1	0	1	1	0	1	1	1	0	1	1	0	1	0	0	0	0	0	1	1	1	1	1	1	1	1	0	0	0	1	1	1	0	1	0	1	0	1	1	1	1	1	1	0	1	0	0	1	1	1	0	1	0	1	0	1	1	1	0	0	1	0	
4078	3958	0	0	1	1	1	1	0	0	1	1	0	0	0	1	0	1	0	0	1	1	1	0	1	0	0	0	1	1	0	1	0	0	1	1	1	1	0	0	1	1	1	1	1	1	0	1	0	0	1	0	1	0	1	1	0	1	0	0	1	0	0	1	1	1	1	1	1	1	1	0	0	0	1	1	1	0	1	0	1	0	1	1	1	1	1	1	0	1	1	0	1	1	1	0	1	0	1	0	1	1	1	0	0	1	0	
4069	3959	0	0	1	1	1	1	0	0	1	1	1	0	0	1	0	1	0	0	1	1	1	0	1	0	0	0	1	1	0	1	0	0	1	1	1	1	0	0	1	1	1	1	1	1	0	1	0	0	1	1	1	0	1	1	0	1	0	1	0	0	0	1	1	0	1	1	1	1	1	0	0	0	0	1	1	1	1	0	1	0	1	0	1	1	1	1	0	1	0	0	1	1	1	0	1	0	1	1	1	1	1	0	0	1	0	
4067	3965	1	0	1	1	1	1	0	0	1	1	0	0	0	1	0	1	0	0	1	1	1	0	1	0	0	0	0	1	0	1	0	0	1	1	1	1	0	0	1	1	1	1	1	1	0	1	0	0	1	1	1	0	1	0	1	1	0	1	0	0	0	1	1	1	1	1	1	1	1	0	0	0	0	1	1	0	1	0	1	0	1	1	1	1	1	1	0	1	0	0	1	1	1	0	1	0	1	1	1	1	1	0	0	1	0	
4062	3971	0	0	1	1	1	1	0	0	1	1	0	0	0	1	0	1	0	0	1	1	1	0	1	0	0	0	1	1	0	1	0	0	1	1	1	1	0	0	1	1	1	1	1	1	0	1	0	0	1	0	1	0	1	0	1	1	0	1	1	0	0	1	1	1	1	1	1	1	1	0	0	0	1	1	1	1	1	0	1	0	1	0	1	1	1	1	0	1	1	0	1	1	1	0	1	0	1	0	1	1	1	0	0	1	0	
4057	3978	0	0	1	1	1	1	0	0	1	1	0	0	0	1	0	1	0	0	1	1	1	0	1	0	0	0	1	1	0	1	0	0	1	1	1	1	0	0	1	1	1	1	1	1	0	1	1	0	1	1	1	0	1	0	1	1	0	1	1	0	0	1	1	1	1	1	1	1	1	0	0	0	0	1	1	1	1	0	1	0	1	0	1	1	1	1	0	1	0	0	1	1	1	0	1	0	1	0	1	1	1	0	0	1	0	
4053	3982	0	0	1	1	1	1	0	0	1	1	0	0	0	1	0	1	0	0	1	1	1	0	1	0	0	0	1	1	0	1	0	0	1	1	1	1	0	0	1	1	1	1	1	1	0	1	0	0	1	1	1	0	1	0	1	1	0	0	1	0	0	1	1	1	1	1	1	1	1	0	0	0	1	1	1	1	1	0	1	0	1	0	1	1	1	1	0	1	1	0	1	1	1	0	1	0	1	0	1	1	1	0	0	1	0	
4048	3990	1	0	1	1	1	1	0	1	1	1	0	0	0	1	0	1	0	0	1	1	1	0	1	0	0	0	0	1	0	1	0	0	1	1	1	1	0	0	1	1	0	1	1	1	0	1	0	0	1	1	1	0	1	1	0	1	0	1	0	0	0	1	1	0	1	1	1	1	1	0	0	0	1	1	1	1	1	0	1	0	1	1	1	1	1	1	0	1	0	0	1	1	1	0	1	0	1	0	1	1	1	0	0	1	0	
4047	3993	1	0	1	1	1	1	0	0	1	1	0	0	0	1	0	1	0	0	1	1	1	0	1	0	0	0	1	1	0	1	0	0	1	1	1	1	0	0	1	1	1	1	1	1	0	1	0	0	1	1	1	1	1	0	0	1	0	1	1	0	0	1	1	0	1	1	1	1	1	0	0	0	1	1	1	0	1	0	1	0	1	1	1	1	1	1	0	1	0	0	1	1	1	0	1	0	1	0	1	1	1	0	0	1	0	
4046	4000	0	0	1	1	1	1	0	0	1	1	0	0	0	1	0	1	0	0	1	1	1	0	1	0	0	0	1	1	0	1	0	0	1	1	1	1	0	0	1	1	1	1	1	1	0	1	0	0	1	1	1	0	1	0	1	1	0	1	1	0	0	1	1	1	1	1	1	1	1	0	0	0	0	1	1	1	1	0	1	0	1	0	1	1	1	1	0	1	1	0	1	1	1	0	1	0	1	0	1	1	1	0	0	1	0	
4038	4001	1	0	1	1	1	1	0	0	1	1	0	0	0	1	0	1	0	0	1	1	1	0	1	0	0	0	0	1	0	1	0	0	1	1	1	1	0	0	1	1	0	1	1	1	0	1	0	0	1	1	1	0	1	1	0	1	0	1	0	0	0	1	1	1	1	1	1	1	1	0	0	0	1	1	1	1	1	0	1	0	1	0	1	1	1	1	0	1	0	0	1	1	1	0	1	0	1	1	1	1	1	0	0	1	0	
4035	4002	0	0	1	1	1	1	0	0	1	1	0	0	0	1	0	1	0	0	1	1	1	0	1	0	0	0	1	1	0	1	0	0	1	1	1	1	0	0	1	1	1	1	1	1	0	1	1	0	1	1	1	0	1	0	1	1	0	1	0	0	0	1	1	0	1	1	1	1	1	0	0	0	1	1	1	1	1	0	1	0	1	0	1	1	1	1	0	1	0	0	1	1	1	0	1	0	1	1	1	1	1	0	0	1	0	
4034	4011	0	0	1	1	1	1	0	1	1	1	0	0	0	1	0	1	0	0	1	1	1	0	1	0	0	0	1	1	0	1	0	0	1	1	1	1	0	0	1	1	1	1	1	1	0	1	0	0	1	1	1	0	1	0	1	1	0	1	0	0	0	1	1	0	1	1	1	1	1	0	0	0	0	1	1	1	1	0	1	0	1	0	1	1	1	1	0	1	1	0	1	1	1	0	1	0	1	1	1	1	1	0	0	1	0	
4025	4013	0	0	1	1	1	1	0	0	1	1	0	0	1	1	0	1	0	0	1	1	1	0	1	0	0	0	1	1	0	1	0	0	1	1	1	1	0	0	1	1	0	1	1	1	0	1	0	0	1	1	1	0	1	1	1	1	0	0	1	0	0	1	1	0	1	1	1	1	1	0	0	0	1	1	1	0	1	0	1	0	1	1	1	1	1	1	0	1	0	0	1	1	1	0	1	0	1	0	1	1	1	0	0	1	0	
4024	4024	0	0	1	1	1	1	0	0	1	1	0	0	0	1	0	1	0	0	1	1	1	0	1	0	0	0	1	1	0	1	0	0	1	1	1	1	0	0	1	1	1	1	1	1	0	1	0	0	1	1	1	0	1	0	1	1	0	1	0	0	0	1	1	0	1	1	1	1	1	0	0	0	1	1	1	1	1	0	1	0	1	0	1	1	1	1	0	1	1	0	1	1	1	0	1	0	1	1	1	1	1	0	0	1	0	
4014	4035	0	0	1	1	1	1	0	0	1	1	0	0	0	1	0	1	0	0	1	1	1	0	1	0	0	0	1	1	0	1	0	0	1	1	1	1	0	0	1	1	1	1	1	1	0	1	0	0	1	1	1	0	1	1	0	1	0	1	1	0	0	1	1	0	1	1	1	1	1	0	0	0	0	1	1	0	1	0	1	0	1	1	1	1	1	1	0	1	1	0	1	1	1	0	1	0	1	0	1	1	1	0	0	1	0	
4009	4045	0	0	1	1	1	1	0	0	1	1	0	0	0	1	0	1	0	0	1	1	1	0	1	0	0	0	1	1	0	1	0	0	1	1	1	1	0	0	1	1	0	1	1	1	0	1	0	0	1	1	1	0	1	0	1	1	0	1	1	0	0	1	1	1	1	1	1	1	1	0	0	0	1	1	1	1	1	0	1	0	1	0	1	1	1	1	0	1	1	0	1	1	1	0	1	0	1	0	1	1	1	0	0	1	0	
3999	4055	1	0	1	1	1	1	0	0	1	1	0	0	0	1	0	1	0	0	1	1	1	0	1	0	0	0	0	1	0	1	0	0	1	1	1	1	0	0	1	1	1	1	1	1	0	1	0	0	1	1	1	0	1	1	0	1	0	1	1	0	0	1	1	0	1	1	1	1	1	0	0	0	1	1	1	0	1	0	1	0	1	0	1	1	1	1	0	1	0	0	1	1	1	0	1	0	1	1	1	1	1	0	0	1	0	
3986	4057	0	0	1	1	1	1	0	0	1	1	0	0	1	1	0	1	0	0	1	1	1	0	1	0	0	0	1	1	0	1	0	0	1	1	1	1	0	0	1	1	0	1	1	1	0	1	0	0	1	1	1	0	1	0	0	1	0	1	1	0	0	1	1	0	1	1	1	1	1	0	0	0	1	1	1	0	1	0	1	0	1	1	1	1	1	1	0	1	0	0	1	1	1	0	1	0	1	1	1	1	1	0	0	1	0	
3984	4060	0	0	1	1	1	1	0	0	1	1	0	0	0	1	0	1	0	0	1	1	1	0	1	0	0	0	1	1	0	1	0	0	1	1	1	1	0	0	1	1	0	1	1	1	0	1	0	0	1	1	1	0	1	1	0	1	0	0	1	0	0	1	1	1	1	1	1	1	1	0	0	0	1	1	1	0	1	0	1	0	1	0	1	1	1	1	0	1	1	0	1	1	1	0	1	0	1	1	1	1	1	0	0	1	0	
3978	4062	0	0	1	1	1	1	0	1	1	1	0	0	0	1	0	1	0	0	1	1	1	0	1	0	0	0	1	1	0	1	0	0	1	1	1	1	0	0	1	1	0	1	1	1	0	1	0	0	1	1	1	0	1	0	1	1	0	1	1	0	0	1	1	0	1	1	1	1	1	0	0	0	1	1	1	1	1	0	1	0	1	0	1	1	1	1	0	1	1	0	1	1	1	0	1	0	1	0	1	1	1	0	0	1	0	
3977	4064	1	0	1	1	1	1	0	0	1	1	0	0	0	1	0	1	0	0	1	1	1	0	1	0	0	0	1	1	0	1	0	0	1	1	1	1	0	0	1	1	0	1	1	1	0	1	0	0	1	1	1	0	1	1	0	1	0	1	1	0	0	1	1	0	1	1	1	1	0	0	0	0	1	1	1	0	1	0	1	0	1	0	1	1	1	1	0	1	1	0	1	1	1	0	1	0	1	1	1	1	1	0	0	1	0	
3974	4067	0	0	1	1	1	1	0	1	1	1	0	0	0	1	0	1	0	0	1	1	1	0	1	0	0	0	0	1	0	1	0	0	1	1	1	1	0	0	1	1	1	1	1	1	0	1	0	0	1	1	1	0	1	0	0	1	0	1	1	0	0	1	1	0	1	1	1	1	1	0	0	0	0	1	1	0	1	0	1	0	1	1	1	1	1	1	0	1	1	0	1	1	1	0	1	0	1	1	1	1	1	0	0	1	0	
3969	4069	0	0	1	1	1	1	0	0	1	0	0	0	0	1	0	1	0	0	1	1	1	0	1	0	0	0	1	1	0	1	0	0	1	1	1	1	0	0	1	1	0	1	1	1	0	1	0	0	1	1	1	0	1	1	1	1	0	1	1	0	0	1	1	1	1	1	1	1	1	0	0	0	0	1	1	0	1	0	1	0	1	1	1	1	1	1	0	1	1	0	1	1	1	0	1	0	1	0	1	1	1	0	0	1	0	
3968	4072	1	0	1	1	1	1	0	0	1	1	0	0	0	1	0	1	0	0	1	1	1	0	1	0	0	0	1	1	0	1	0	0	0	1	1	1	0	0	1	1	1	1	1	1	0	1	0	0	1	1	1	0	1	1	0	1	0	1	1	0	0	1	1	0	1	1	1	1	1	0	0	0	1	1	1	0	1	0	1	0	1	0	1	1	1	1	0	1	0	0	1	1	1	0	1	0	1	1	1	1	1	0	0	1	0	
3966	4079	0	0	1	1	1	1	0	0	1	1	0	0	0	1	0	1	0	0	1	1	1	0	1	0	0	0	0	1	0	1	0	0	1	1	1	1	0	0	1	1	0	1	1	1	0	1	0	0	1	1	1	0	1	1	1	1	0	0	1	0	0	1	1	1	1	1	1	1	1	0	0	0	1	1	1	0	1	0	1	0	1	0	1	1	1	1	0	1	1	0	1	1	1	0	1	0	1	1	1	1	1	0	0	1	0	
3964	4080	0	0	1	1	1	1	0	0	1	1	0	0	0	1	0	1	0	0	1	1	1	0	1	0	0	0	0	1	0	1	0	0	1	1	1	1	0	0	1	1	1	1	1	1	0	1	0	0	1	1	1	0	1	0	0	1	0	1	1	0	0	1	1	0	1	1	1	1	1	0	0	0	1	1	1	0	1	0	1	0	1	1	1	1	1	1	0	1	1	0	1	1	1	0	1	0	1	1	1	1	1	0	0	1	0	
3955	4082	0	0	1	1	1	1	0	0	1	1	0	0	0	1	0	1	0	0	1	1	1	0	1	0	0	0	0	1	0	1	0	0	1	1	1	1	0	0	1	1	1	1	1	1	0	1	0	0	1	1	1	0	1	1	1	1	0	1	1	0	0	1	1	0	1	1	1	1	1	0	0	0	0	1	1	0	1	0	1	0	1	0	1	1	1	1	0	1	1	0	1	1	1	0	1	0	1	1	1	1	1	0	0	1	0	
3948	4088	0	0	1	1	1	1	0	0	1	1	0	0	0	1	0	1	0	0	1	1	1	0	1	0	0	0	1	1	0	1	0	0	1	1	1	1	0	0	1	1	0	1	1	1	0	1	0	0	1	1	1	0	1	0	1	1	0	1	1	0	0	1	1	0	1	1	1	1	1	0	0	0	1	1	1	1	1	0	1	0	1	0	1	1	1	1	0	1	0	1	1	1	1	0	1	0	1	1	1	1	1	0	0	1	0	
3946	4095	0	0	1	1	1	1	0	1	1	1	0	0	0	1	0	1	0	0	1	1	1	0	1	0	0	0	1	1	0	1	0	0	1	1	1	1	0	0	1	1	0	1	1	1	0	1	0	0	1	1	1	0	1	1	0	1	0	1	1	0	0	1	1	0	1	1	1	1	1	0	0	0	0	1	1	0	1	0	1	0	1	0	1	1	1	1	0	1	1	0	1	1	1	0	1	0	1	1	1	1	1	0	0	1	0	
3936	4108	0	0	1	1	1	1	0	0	1	1	0	0	0	1	0	1	0	0	1	1	1	0	1	0	0	0	1	1	0	1	0	0	1	1	1	1	0	0	1	1	0	1	1	1	0	1	0	0	1	1	1	0	1	1	0	1	0	1	1	0	0	1	1	0	1	1	1	1	1	0	0	0	1	1	1	0	1	0	1	0	1	0	1	1	1	1	0	1	1	0	1	1	1	0	1	0	1	1	1	1	1	0	0	1	0	
3928	4114	0	0	1	1	1	1	0	1	1	1	0	0	0	1	0	1	0	0	1	1	1	0	1	0	0	0	0	1	0	1	0	0	1	1	1	1	0	0	1	1	0	1	1	1	0	1	0	0	1	1	1	0	1	1	1	1	0	1	1	0	0	1	1	0	1	1	1	1	1	0	0	0	0	1	1	0	1	0	1	0	1	0	1	1	1	1	0	1	1	0	1	1	1	0	1	0	1	1	1	1	1	0	0	1	0	
3918	4127	0	0	1	1	1	1	0	0	1	1	0	0	0	1	0	1	0	0	1	1	1	0	1	0	0	0	0	1	0	1	0	0	1	1	1	1	0	0	1	1	0	1	1	1	0	1	0	0	1	1	1	0	1	1	1	1	0	1	1	0	0	1	1	0	1	1	1	1	1	0	0	0	1	1	1	0	1	0	1	0	1	0	1	1	1	1	0	1	1	0	1	1	1	0	1	0	1	1	1	1	1	0	0	1	0	
3897	4131	0	0	1	1	1	1	0	1	1	1	0	0	0	1	0	1	0	0	1	1	1	0	1	0	0	0	1	1	0	1	0	0	0	1	1	1	0	0	1	1	0	1	1	1	0	1	0	0	1	1	1	0	1	1	1	1	0	1	1	0	0	1	1	0	1	1	1	1	1	0	0	0	0	1	1	0	1	0	1	0	1	0	1	1	1	1	0	1	1	0	1	1	1	0	1	0	1	1	1	1	1	0	0	1	0	
3893	4135	0	0	1	1	1	1	0	0	1	0	0	0	1	1	0	1	0	0	1	1	1	0	1	0	0	0	0	1	0	1	0	0	1	1	1	1	0	0	1	1	0	1	1	1	0	1	0	0	1	1	1	0	1	1	1	1	0	1	1	0	0	1	1	0	1	1	1	1	1	0	0	0	1	1	1	0	1	0	1	0	1	0	1	1	1	1	0	1	1	0	1	1	1	0	1	0	1	1	1	1	1	0	0	1	0	
3887	4144	0	0	1	1	1	1	0	0	1	1	0	0	0	1	0	1	0	0	1	1	1	0	1	0	0	0	1	1	0	1	0	0	0	1	1	1	0	0	1	1	0	1	1	1	0	1	0	0	1	1	1	0	1	1	1	1	0	1	1	0	0	1	1	0	1	1	1	1	1	0	0	0	1	1	1	0	1	0	1	0	1	0	1	1	1	1	0	1	1	0	1	1	1	0	1	0	1	1	1	1	1	0	0	1	0	
3873	4149	0	0	1	1	1	1	0	1	1	0	0	0	0	1	0	1	0	0	1	1	1	0	1	0	0	0	0	1	0	1	0	0	1	1	1	1	0	0	1	1	0	1	1	1	0	1	1	0	1	1	1	0	1	1	0	1	0	1	1	0	0	1	1	0	1	1	1	1	1	0	0	0	1	1	1	0	1	0	1	0	1	0	1	1	1	1	0	1	1	0	1	1	1	0	1	0	1	1	1	1	1	0	0	1	0	
3862	4152	0	0	1	1	1	1	0	0	1	0	0	0	1	1	0	1	0	0	1	1	1	0	1	0	0	0	1	1	0	1	0	0	0	1	1	1	0	0	1	1	0	1	1	1	0	1	0	0	1	1	1	0	1	1	1	1	0	1	1	0	0	1	1	0	1	1	1	1	1	0	0	0	1	1	1	0	1	0	1	0	1	0	1	1	1	1	0	1	1	0	1	1	1	0	1	0	1	1	1	1	1	0	0	1	0	
3860	4163	0	0	1	1	1	1	0	0	1	0	0	0	0	1	0	1	0	0	1	1	1	0	1	0	0	0	1	1	0	1	0	0	1	1	1	1	0	0	1	1	0	1	1	1	0	1	1	0	1	1	1	0	1	0	1	1	0	1	1	0	0	1	1	0	1	1	1	1	1	0	0	0	1	1	1	0	1	0	1	0	1	0	1	1	1	1	0	1	1	1	1	1	1	0	1	0	1	1	1	1	1	0	0	1	0	
3835	4167	0	0	1	1	1	1	0	0	1	1	0	0	0	1	0	1	0	0	1	1	1	0	1	0	0	0	0	1	0	1	0	0	0	1	1	1	0	0	1	1	0	1	1	1	0	1	1	0	1	1	1	0	1	0	0	1	0	1	1	0	0	1	1	0	1	1	1	1	1	0	0	0	1	1	1	0	1	0	1	0	1	1	1	1	1	1	0	1	1	1	1	1	1	0	1	0	1	1	1	1	1	0	0	1	0	
3826	4169	0	0	1	1	1	1	0	0	1	1	0	0	0	1	0	1	0	0	1	1	1	0	1	0	0	0	0	1	0	1	0	0	0	1	1	1	0	0	1	1	0	1	1	1	0	1	1	0	1	1	1	0	1	1	1	1	0	1	1	0	0	1	1	0	1	1	1	1	1	0	0	0	0	1	1	0	1	0	1	0	1	0	1	1	1	1	0	1	1	1	1	1	1	0	1	0	1	1	1	1	1	0	0	1	0	
3825	4170	0	0	1	1	1	1	0	0	1	0	0	0	0	1	0	1	0	0	1	1	1	0	1	0	0	0	1	1	0	1	0	0	1	1	1	1	0	0	1	1	0	1	1	1	0	1	1	0	1	1	0	0	1	1	0	1	0	1	1	0	0	1	1	0	1	1	1	1	1	0	0	0	1	1	1	0	1	0	1	0	1	0	1	1	1	1	0	1	1	1	1	1	1	0	1	0	1	1	1	1	1	0	0	1	0	
3817	4176	0	0	1	1	1	1	0	1	1	0	0	0	0	1	0	1	0	0	1	1	1	0	1	0	0	0	0	1	0	1	0	0	1	1	1	1	0	0	1	1	0	1	1	1	0	1	1	0	1	1	0	0	1	1	1	1	0	1	1	0	0	1	1	0	1	1	1	1	1	0	0	0	0	1	1	0	1	0	1	0	1	0	1	1	1	1	0	1	1	1	1	1	1	0	1	0	1	1	1	1	1	0	0	1	0	
3811	4177	0	0	1	1	1	1	0	1	1	1	0	0	0	1	0	1	0	0	1	1	1	0	1	0	0	0	0	1	0	1	0	0	0	1	1	1	0	0	1	1	0	1	1	1	0	1	0	0	1	1	1	0	1	0	1	1	0	1	1	0	0	1	1	0	1	1	1	1	1	0	0	0	1	1	1	0	1	0	1	0	1	0	1	1	1	1	0	1	1	0	1	1	1	1	1	0	1	1	1	1	1	0	0	1	0	
3807	4189	0	0	1	1	1	1	0	0	1	0	0	0	0	1	0	1	0	0	1	1	1	0	1	0	0	0	0	1	0	1	0	0	1	1	1	1	0	0	1	1	0	1	1	1	0	1	1	0	1	1	0	0	1	1	1	1	0	1	1	0	0	1	1	0	1	1	1	1	1	0	0	0	1	1	1	0	1	0	1	0	1	0	1	1	1	1	0	1	1	1	1	1	1	0	1	0	1	1	1	1	1	0	0	1	0	
3787	4191	0	0	1	1	1	1	0	1	1	0	0	0	0	1	0	1	0	0	1	1	1	0	1	0	0	0	0	1	0	1	0	0	0	1	1	1	0	0	1	1	0	1	1	1	0	1	1	0	1	1	1	0	1	0	1	1	0	1	1	0	0	1	1	0	1	1	1	1	1	0	1	0	1	1	1	0	1	0	1	0	1	0	1	1	1	1	0	1	1	0	1	1	1	0	1	0	1	1	1	1	1	0	0	1	0	
3786	4193	0	0	1	1	1	1	0	1	1	0	0	0	0	1	0	1	0	0	1	1	1	0	1	0	0	0	1	1	0	1	0	0	0	1	1	1	0	0	1	1	0	1	1	1	0	1	1	0	1	1	0	0	1	1	1	1	0	1	1	0	0	1	1	0	1	1	1	1	1	0	0	0	0	1	1	0	1	0	1	0	1	0	1	1	1	1	0	1	1	1	1	1	1	0	1	0	1	1	1	1	1	0	0	1	0	
3776	4206	0	0	1	1	1	1	0	0	1	0	0	0	0	1	0	1	0	0	1	1	1	0	1	0	0	0	1	1	0	1	0	0	0	1	1	1	0	0	1	1	0	1	1	1	0	1	1	0	1	1	0	0	1	1	1	1	0	1	1	0	0	1	1	0	1	1	1	1	1	0	0	0	1	1	1	0	1	0	1	0	1	0	1	1	1	1	0	1	1	1	1	1	1	0	1	0	1	1	1	1	1	0	0	1	0	
3751	4208	0	0	1	1	1	1	0	0	1	0	0	0	0	1	0	0	0	0	1	1	1	0	1	0	0	0	1	1	0	1	0	0	0	1	1	1	0	0	1	1	0	1	1	1	0	1	0	0	1	1	1	0	1	1	1	1	0	1	1	0	0	1	1	0	1	1	1	1	1	0	0	1	1	1	1	0	1	0	1	0	1	0	1	1	1	1	0	1	1	1	1	1	1	0	1	0	1	1	1	1	1	0	0	1	0	
3745	4212	0	0	1	1	1	1	0	0	1	0	0	0	0	1	1	1	0	0	1	1	1	0	1	0	0	0	0	1	0	1	0	0	0	1	1	1	0	0	1	1	0	1	1	1	0	1	0	0	1	1	1	0	1	1	1	1	0	1	1	0	0	1	1	0	1	1	1	1	1	0	0	0	1	1	1	0	1	0	1	0	1	0	1	1	1	1	0	1	1	1	1	1	1	0	1	0	1	1	1	1	1	0	0	1	0	
3724	4214	0	0	1	1	1	1	0	0	1	1	0	0	0	1	0	0	0	0	1	1	1	0	1	0	0	0	0	1	0	1	0	1	0	1	1	1	0	0	1	1	0	1	1	1	0	1	0	0	1	1	1	0	1	0	1	1	0	1	1	0	0	1	1	0	1	1	1	1	1	0	1	0	1	1	1	0	1	0	1	0	1	0	1	1	1	1	0	1	1	1	1	1	1	0	1	0	1	1	1	1	1	0	0	1	0	
3717	4219	0	0	1	1	1	1	0	1	1	0	0	0	0	1	0	0	0	0	1	1	1	0	1	0	0	0	0	1	0	1	0	0	0	1	1	1	0	0	1	1	0	1	1	1	0	1	0	0	1	1	0	0	1	1	0	1	0	1	1	0	0	1	1	0	1	1	1	1	1	0	0	1	1	1	1	0	1	0	1	0	1	1	1	1	1	1	0	1	1	1	1	1	1	0	1	0	1	1	1	1	1	0	0	1	0	
3716	4220	0	0	0	1	1	1	0	0	1	0	0	0	0	1	0	1	0	0	1	1	1	0	1	0	0	0	1	1	0	1	0	0	0	1	1	1	0	0	1	1	0	1	1	1	0	1	0	0	1	1	1	0	1	1	1	1	0	1	1	0	0	1	1	0	1	1	1	1	1	0	0	0	1	1	1	0	1	0	1	0	1	0	1	1	1	1	0	1	1	1	1	1	1	1	1	0	1	1	1	1	1	0	0	1	0	
3701	4225	0	0	1	1	1	1	0	0	1	0	0	0	0	1	0	0	0	0	1	1	1	0	1	0	0	0	0	1	0	1	0	0	0	1	1	1	0	0	1	1	0	1	1	1	0	1	0	0	1	1	1	0	1	1	0	1	0	1	1	0	0	1	1	0	1	1	1	1	1	0	0	0	1	1	1	0	1	0	1	0	1	1	1	1	1	1	0	1	1	1	1	1	1	1	1	0	1	1	1	1	1	0	0	1	0	
3684	4231	0	0	1	1	1	1	0	1	1	0	0	0	0	1	0	0	0	0	1	1	1	0	1	0	1	0	0	1	0	1	0	0	0	1	1	1	0	0	1	1	0	1	1	1	0	1	0	0	1	1	1	0	1	0	1	1	0	1	1	0	0	1	1	0	1	1	1	1	1	0	0	1	1	1	1	0	1	0	1	0	1	0	1	1	1	1	0	1	1	1	1	1	1	0	1	0	1	1	1	1	1	0	0	1	0	
3675	4241	0	0	1	1	1	1	0	1	1	0	0	0	0	1	0	0	0	0	1	1	1	0	1	0	0	0	0	1	0	1	0	0	0	1	1	1	0	0	1	1	0	1	1	1	0	1	0	0	1	1	1	0	1	0	1	1	0	1	1	0	0	1	1	0	1	1	1	1	1	0	0	1	1	1	1	0	1	0	1	0	1	0	1	1	1	1	0	1	1	1	1	1	1	1	1	0	1	1	1	1	1	0	0	1	0	
3640	4248	0	0	1	1	1	1	0	1	1	0	0	0	0	1	0	0	0	0	1	1	1	0	1	0	0	0	0	1	0	1	0	0	0	1	1	1	0	0	1	1	0	1	1	1	0	1	0	0	1	1	0	0	1	1	0	1	0	1	1	0	0	1	1	0	1	1	1	1	1	0	0	1	1	1	1	0	1	0	1	0	1	0	1	1	1	1	0	1	1	1	1	1	1	1	1	0	1	1	1	1	1	0	0	1	0	
3626	4252	0	0	0	1	1	1	0	0	1	0	0	0	0	1	0	1	0	0	1	1	1	0	1	0	0	0	0	1	0	1	0	0	0	1	1	1	0	0	1	1	0	1	1	1	0	1	0	0	1	1	0	0	1	1	1	1	0	1	1	0	0	1	1	0	1	1	1	1	1	0	1	0	1	1	1	0	1	0	1	0	1	0	1	1	1	1	0	1	1	1	1	1	1	1	1	0	1	1	1	1	1	0	0	1	0	
3591	4253	0	0	0	1	1	1	0	1	1	0	0	0	0	1	0	0	0	0	1	1	1	0	1	0	0	0	0	1	0	1	0	0	0	1	1	1	0	0	1	1	0	1	1	1	0	1	0	0	1	1	0	0	1	1	1	1	0	1	1	0	0	1	1	0	1	1	1	1	1	0	0	1	1	1	1	0	1	0	1	0	1	0	1	1	1	1	0	1	1	1	1	1	1	1	1	0	1	1	1	1	1	0	0	1	0	
3588	4260	0	0	1	1	1	1	0	0	1	0	0	0	0	1	1	0	0	0	1	1	1	0	0	0	0	0	0	1	0	1	0	0	0	1	1	1	0	0	1	1	0	1	1	1	0	1	0	0	1	1	1	0	1	1	1	1	0	1	1	0	0	1	1	0	1	1	1	1	1	0	0	0	1	1	1	0	1	0	1	0	1	0	1	1	1	1	0	1	1	1	1	1	1	1	1	0	1	1	1	1	1	0	0	1	0	
3570	4261	0	0	1	1	1	1	0	0	1	0	0	0	0	1	1	0	0	0	1	1	1	0	1	1	0	0	0	1	0	1	0	0	0	1	1	1	0	0	1	1	0	1	1	1	0	1	0	0	1	1	0	0	1	1	0	1	0	1	1	0	0	1	1	0	1	1	1	1	1	0	0	0	1	1	1	0	1	0	1	0	1	0	1	1	1	1	0	1	1	1	1	1	1	1	1	0	1	1	1	1	1	0	0	1	0	
3558	4267	0	0	0	1	1	0	0	1	1	0	0	0	0	1	0	0	0	0	1	1	1	0	1	0	0	0	0	1	0	1	0	1	0	1	1	1	0	0	1	1	0	1	1	1	0	1	1	0	1	1	1	0	1	1	0	1	0	1	1	0	0	1	1	0	1	1	1	1	1	0	0	0	1	1	1	0	1	0	1	0	1	0	1	1	1	1	0	1	1	1	1	1	1	1	1	0	1	1	1	1	1	0	0	1	0	
3546	4274	0	0	0	1	1	1	0	0	1	0	0	0	0	1	0	0	0	0	1	1	1	0	1	0	0	0	0	0	0	1	0	1	0	1	1	1	0	0	1	1	0	1	1	1	0	1	0	0	1	1	1	0	1	1	1	1	0	1	1	0	0	1	1	0	1	1	1	1	1	0	1	0	1	1	1	0	1	0	1	0	1	0	1	1	1	1	0	1	1	1	1	1	1	1	1	0	1	1	1	1	1	0	0	1	0	
3493	4278	0	0	1	1	1	1	0	0	1	0	0	0	0	1	0	0	0	0	1	1	1	0	0	0	0	0	0	0	0	1	0	1	0	1	1	1	0	0	1	1	0	1	1	1	0	1	0	0	1	1	0	0	1	1	1	1	0	1	1	0	0	1	1	0	1	1	1	1	1	0	1	0	1	1	1	0	1	0	1	0	1	0	1	1	1	1	0	1	1	1	1	1	1	1	1	0	1	1	1	1	1	0	0	1	0	
3483	4279	0	0	0	1	1	1	0	0	1	0	0	0	0	1	0	0	0	0	1	1	1	0	1	0	1	0	0	1	0	1	0	0	0	1	1	1	0	0	1	1	0	1	1	1	0	1	0	0	1	1	0	0	1	1	1	1	0	1	1	0	0	1	1	0	0	1	1	1	1	0	1	0	1	1	1	0	1	0	1	0	1	0	1	1	1	1	0	1	1	1	1	1	1	1	1	0	1	1	1	1	1	0	0	1	0	
3453	4281	0	0	0	1	1	1	0	1	1	0	0	0	0	1	0	0	0	0	1	1	1	0	0	0	1	0	0	0	0	1	0	0	0	1	1	1	0	0	1	1	0	1	1	1	0	1	0	0	1	1	0	0	1	1	1	1	0	1	1	0	0	1	1	0	1	1	1	1	1	0	0	1	1	1	1	0	1	0	1	0	1	0	1	1	1	1	0	1	1	1	1	1	1	1	1	0	1	1	1	1	1	0	0	1	0	
3419	4282	0	0	0	1	1	0	0	1	1	0	0	0	0	1	0	0	0	0	1	1	1	0	0	0	0	0	0	1	0	1	0	1	0	1	1	1	0	0	1	1	0	1	1	1	0	1	1	0	1	1	0	0	1	0	1	1	0	1	1	0	0	1	1	0	1	1	1	1	1	0	1	0	1	1	1	0	1	0	1	0	1	0	1	1	1	1	0	1	1	1	1	1	1	1	1	0	1	1	1	1	1	0	0	1	0	
3414	4283	0	0	0	1	1	1	0	0	1	0	0	0	0	1	0	0	0	0	1	1	1	0	0	1	1	0	0	1	0	1	0	0	0	1	1	1	0	0	1	1	0	1	1	1	0	1	1	0	1	1	0	0	1	1	1	1	0	1	1	0	0	1	1	0	0	1	1	1	1	0	0	0	1	1	1	0	1	0	1	0	1	0	1	1	1	1	0	1	1	1	1	1	1	1	1	0	1	1	1	1	1	0	0	1	0	
3410	4284	0	0	0	1	1	1	0	0	1	0	0	0	0	1	0	0	0	0	1	1	1	0	0	1	0	0	0	0	0	1	0	1	0	1	1	1	0	0	1	1	0	1	1	1	0	1	0	0	1	1	0	0	1	1	1	1	0	1	1	0	0	1	1	0	1	1	1	1	1	0	1	0	1	1	1	0	1	0	1	0	1	0	1	1	1	1	0	1	1	1	1	1	1	1	1	0	1	1	1	1	1	0	0	1	0	
3407	4289	0	0	0	1	1	0	0	0	1	0	0	0	0	1	1	0	0	0	1	1	1	0	0	1	0	0	0	1	0	1	0	0	0	1	1	1	0	0	1	1	0	1	1	1	0	1	1	0	1	1	0	0	1	1	1	1	0	1	1	0	0	1	1	0	1	1	1	1	1	0	0	0	1	1	1	0	1	0	1	0	1	0	1	1	1	1	0	1	1	1	1	1	1	1	1	0	1	1	1	1	1	0	0	1	0	
3405	4291	0	0	0	1	1	1	0	0	1	0	0	0	0	1	0	0	0	0	1	1	1	0	0	1	0	0	0	0	0	1	0	1	0	1	1	1	0	0	1	1	0	1	1	1	0	1	1	0	1	1	0	0	1	1	0	1	0	1	1	0	0	1	1	0	1	1	1	1	1	0	1	0	1	1	1	0	1	0	1	0	1	0	1	1	1	1	0	1	1	1	1	1	1	1	1	0	1	1	1	1	1	0	0	1	0	
3355	4292	0	0	0	1	1	1	0	0	1	0	0	0	0	1	0	0	0	0	1	1	1	0	0	0	1	0	0	0	0	1	0	0	0	1	1	1	0	0	1	1	0	1	1	1	0	1	1	0	1	1	0	0	1	1	1	1	0	1	1	0	0	1	1	0	1	1	1	1	1	0	1	0	1	1	1	0	1	0	1	0	1	0	1	0	1	1	0	1	1	1	1	1	1	1	1	0	1	1	1	1	1	0	0	1	0	
3353	4294	0	0	0	1	1	1	0	0	1	0	0	0	0	1	0	0	0	0	1	1	1	0	0	0	1	0	0	0	0	1	0	0	0	1	1	1	0	0	0	1	0	1	1	1	0	1	1	0	1	1	0	0	1	1	1	1	0	1	1	0	0	1	1	0	1	1	1	1	1	0	1	0	1	1	1	0	1	0	1	0	1	0	1	1	1	1	0	1	1	1	1	1	1	1	1	0	1	1	1	1	1	0	0	1	0	
3339	4295	0	0	0	1	1	0	0	1	1	0	0	0	0	1	1	0	0	0	1	1	1	0	0	0	1	0	0	1	0	1	0	0	0	1	1	1	0	0	0	1	0	1	1	1	0	1	0	0	1	1	0	0	1	1	1	1	0	1	1	0	0	1	1	0	1	1	1	1	1	0	0	0	1	1	1	0	1	0	1	0	1	0	1	1	1	1	0	1	1	1	1	1	1	1	1	0	1	1	1	1	1	0	0	1	0	
3335	4298	0	0	0	1	1	0	0	1	1	0	0	0	0	1	0	0	0	0	1	1	1	0	0	1	1	0	0	0	0	1	0	1	0	1	1	1	0	0	1	1	0	1	1	1	0	1	1	0	1	1	0	0	1	0	1	1	0	1	1	0	0	1	1	0	1	1	1	1	1	0	0	0	1	1	1	0	1	0	1	0	1	0	1	1	1	1	0	1	1	1	1	1	1	1	1	0	1	1	1	1	1	0	0	1	0	
3241	4300	0	0	0	1	1	0	0	0	1	0	0	0	0	1	0	0	0	0	1	1	1	0	0	0	1	0	0	0	0	1	0	0	0	1	1	1	0	0	0	1	0	1	1	1	0	1	1	0	1	1	0	0	1	1	0	1	0	1	1	0	0	1	1	0	1	1	1	1	1	0	1	0	1	1	1	0	1	0	1	0	1	0	1	1	1	1	1	1	1	1	1	1	1	1	1	0	1	1	1	1	1	0	0	1	0	
3231	4301	0	0	0	1	1	0	0	0	1	0	0	0	0	1	0	0	0	0	1	1	1	0	0	1	1	0	0	1	0	1	0	0	0	1	1	1	0	0	0	1	0	1	1	1	0	1	1	0	1	1	0	0	1	1	0	1	0	1	1	0	0	1	1	0	1	1	1	1	1	0	1	0	1	1	1	0	0	0	1	0	1	0	1	1	1	1	0	1	1	1	1	1	1	1	1	0	1	1	1	1	1	0	0	1	0	
3191	4302	0	0	0	1	1	0	0	0	1	0	0	0	0	1	1	0	0	0	1	1	1	0	0	1	0	0	0	0	0	1	0	0	0	1	1	1	0	0	0	1	0	1	1	1	0	1	1	0	1	1	0	0	1	1	1	1	0	1	1	0	0	1	1	0	1	1	1	1	1	0	1	0	1	1	1	0	0	0	1	0	1	0	1	1	1	1	0	1	1	1	1	1	1	1	1	0	1	1	1	1	1	0	0	1	0	
3190	4307	0	0	0	1	1	0	0	0	1	0	0	0	0	1	0	0	0	0	1	1	1	0	0	1	1	0	0	0	0	1	0	1	0	1	1	1	0	0	0	1	0	1	1	1	0	1	0	0	1	1	0	0	1	1	1	1	0	1	1	0	0	1	1	0	0	1	1	1	1	0	1	0	1	1	1	0	1	0	1	0	1	0	1	1	1	1	0	1	1	1	1	1	1	1	1	0	1	1	1	1	1	0	0	1	0	
